8 6 66
4 8 1 7 1 7 2 7 3 16 27 30 40 40 50 50 61 
4 2 1 8 2 4 1 4 2 18 29 32 41 46 60 60 66 
5 6 1 6 2 2 2 6 3 8 3 10 22 22 41 41 51 51 58 58 65 
6 5 1 5 2 3 1 3 2 1 1 1 2 12 23 23 40 40 48 48 55 55 60 60 66 
7 5 1 2 1 2 1 3 1 3 1 1 1 1 1 0 12 12 14 14 18 18 28 28 40 40 42 42 54 
10 6 1 8 1 8 1 7 1 7 1 8 2 2 2 4 1 4 1 8 3 0 10 10 14 14 16 16 28 28 30 30 32 32 38 38 42 42 46 46 52 
